100 997
403 886 814 1151 983 629 848 1074 839 819 1062 762 994 950 111 914 737 1049 1152 1110 973 474 824 1013 963 1101 1024 816 1063 575 1153 447 1117 910 1017 931 909 1126 1027 871 1052 891 375 1131 318 705 1048 908 1026 1061 865 493 742 978 575 877 339 1078 592 1019 1066 717 690 800 855 1006 1082 614 638 1090 441 780 764 337 871 1005 687 1108 205 875 1109 395 554 600 173 860 815 816 759 1002 708 582 786 1135 881 572 1033 727 1151 613 
94 506 416 992 649 237 457 815 446 422 791 359 667 598 7 544 334 766 994 893 633 131 428 700 617 874 720 419 794 196 997 116 908 539 707 569 537 931 726 487 772 513 81 943 58 303 764 536 724 789 479 142 339 641 196 494 66 824 208 711 800 314 289 401 466 689 833 225 244 849 113 379 361 65 486 686 286 889 24 491 891 90 181 214 17 472 418 419 356 682 306 201 385 952 500 194 737 324 992 224 
